(set-logic QF_S)
(set-option :produce-models true)

(declare-fun temp2_546_572 () String)
(declare-fun temp2_546_562 () String)
(declare-fun temp1_546_572 () String)
(declare-fun s597 () String)
(declare-fun s562 () String)
(declare-fun temp2_546_557 () String)
(declare-fun temp1_546_562 () String)
(declare-fun temp2_546_567 () String)
(declare-fun s572 () String)
(declare-fun s546 () String)
(declare-fun temp1_546_557 () String)
(declare-fun s557 () String)
(declare-fun s567 () String)
(declare-fun temp1_546_567 () String)

(assert (= (str.++ temp1_546_567 temp2_546_567) s546) )
(assert (= (str.len temp1_546_567) (str.len s567) ) )
(assert (= s546 s597 ))
(assert (= (str.len temp2_546_562) (str.len s562) ) )
(assert (not (= s562 temp2_546_562) ) )
(assert (not (= s572 temp2_546_572) ) )
(assert (= (str.++ temp1_546_572 temp2_546_572) s546) )
(assert (not (= s546 s597 )))
(assert (= (str.++ temp1_546_557 temp2_546_557) s546) )
(assert (= (str.len temp1_546_557) (str.len s557) ) )
(assert (not (= s557 temp1_546_557) ) )
(assert (= (str.++ temp1_546_562 temp2_546_562) s546) )
(assert (= (str.len temp2_546_572) (str.len s572) ) )
(assert (not (= s567 temp1_546_567) ) )
(assert (= s597 "..." ))


(check-sat)
(get-model)
